c ---- [ banner ] ------------------------------------------------------------
c
c Kissat SAT Solver
c 
c Copyright (c) 2021-2024 Armin Biere University of Freiburg
c Copyright (c) 2019-2021 Armin Biere Johannes Kepler University Linz
c 
c Version 4.0.1 43f02cf3e992cb44653b35e5cb26f93281552ae0
c gcc (Ubuntu 13.2.0-23ubuntu4) 13.2.0 -W -Wall -O3 -DNDEBUG
c Thu Sep 12 12:27:46 CEST 2024 Linux abryzen9 6.8.0-41-generic x86_64
c
c ---- [ parsing ] -----------------------------------------------------------
c
c opened and reading DIMACS file:
c
c   /data/artifact/AMulet2.0_artifact/exp4/cnf_sopb_64/64_64_U1_WT_HCA_Multgen_sopb.cnf
c
c parsed 'p cnf 30215 133864' header
c closing input after reading 2690880 bytes (3 MB)
c finished parsing after 0.02 seconds
c
c ---- [ options ] -----------------------------------------------------------
c
c --stable=0                       (different from default '1')
c
c ---- [ solving ] -----------------------------------------------------------
c
c  seconds switched rate     size/glue tier1  binary           remaining
c         MB reductions conflicts size  tier2     irredundant
c          level restarts redundant glue  trail           variables
c
c *  0.02 10 0 0 0  0 0   0   0 0.0 0 0 0 0 0% 13762 120100 30212 100%
c (  0.04 12 0 0 0  0 0   0   0 0.0 0 0 0 0 0% 13762 120100 30212 100%
c .  0.04 13 0 0 0  0 0   0   0 0.0 0 0 0 0 0% 13758 120100 30212 100%
c c  0.10 18 0 0 0  0 0   0   0 0.0 0 0 0 0 0% 18646 110597 27778 92%
c d  0.11 18 0 0 0  0 0   0   0 0.0 0 0 0 0 0% 13778 110597 27778 92%
c =  0.14 18 0 0 0  0 0   0   0 0.0 0 0 0 0 0% 13654 110594 27761 92%
c d  0.15 18 0 0 0  0 0   0   0 0.0 0 0 0 0 0% 13617 110594 27761 92%
c f  0.23 19 0 0 0  0 0   0   0 0.0 0 0 0 0 0% 19094 101953 30866 102%
c e  0.37 26 0 0 0  0 0   0   0 0.0 0 0 0 0 0% 11972 111271 21615 72%
c )  0.37 26 0 0 0  0 0   0   0 0.0 0 0 0 0 0% 11972 111271 21615 72%
c {  0.39 26 0 0 0  0 0   0   0 0.0 0 0 2 6 0% 11972 111271 21615 72%
c -  0.62 27 115 0 1 318 34 1000 640 4.1 23 6 3 11 17% 12098 111262 21615 72%
c -  0.80 27 167 0 2 456 32 2000 1239 4.1 25 6 3 11 21% 12180 111239 21615 72%
c c  0.94 22 156 0 2 518 31 2505 1677 4.1 25 6 3 11 22% 12228 111112 21590 71%
c d  0.95 22 156 0 2 518 31 2505 1665 4.1 25 6 3 11 22% 12178 111112 21590 71%
c u  0.96 22 156 0 2 518 31 2505 1365 4.1 25 6 3 11 22% 12185 111112 21590 71%
c v  0.97 22 156 0 2 518 31 2505 1154 4.1 25 6 3 11 22% 12186 111112 21590 71%
c w  0.98 25 156 0 2 518 31 2505 1153 4.1 25 6 3 11 22% 12186 111112 21590 71%
c x  1.00 25 156 0 2 518 31 2505 1153 4.1 25 6 3 11 22% 12279 110893 21590 71%
c =  1.06 26 156 0 2 518 31 2505 1153 4.1 25 6 3 11 22% 12349 110893 21555 71%
c
c  seconds   switched   rate       size/glue tier1     binary           remaining
c         MB  reductions conflicts       size  tier2       irredundant
c           level restarts    redundant    glue    trail           variables
c
c d  1.06 26 156 0 2 518 31 2505 1152 4.1 25 6 3 11 22% 12273 110893 21554 71%
c t  1.07 26 156 0 2 518 31 2505 1152 4.1 25 6 3 11 22% 12267 110893 21554 71%
c f  1.09 26 156 0 2 518 31 2505 1152 4.1 25 6 3 11 22% 13011 109441 22225 74%
c u  1.14 26 156 0 2 518 31 2505 1103 4.1 25 6 3 11 22% 13018 109441 22225 74%
c v  1.15 26 156 0 2 518 31 2505 1070 4.1 25 6 3 11 22% 13018 109441 22225 74%
c w  1.18 26 156 0 2 518 31 2505 1069 4.1 25 6 3 11 22% 13018 109441 22225 74%
c x  1.20 26 156 0 2 518 31 2505 1069 4.1 25 6 3 11 22% 13018 109417 22225 74%
c =  1.25 26 156 0 2 518 31 2505 1069 4.1 25 6 3 11 22% 13264 109417 22102 73%
c d  1.26 26 156 0 2 518 31 2505 1069 4.1 25 6 3 11 22% 13015 109417 22102 73%
c f  1.28 26 156 0 2 518 31 2505 1069 4.1 25 6 3 11 22% 14328 107434 22761 75%
c -  1.46 26 185 0 3 639 32 3414 1563 4.1 26 6 3 10 23% 14376 107431 22761 75%
c -  1.73 26 281 0 4 794 37 5147 2682 4.1 25 6 3 11 23% 14468 107426 22761 75%
c -  2.07 26 362 0 5 998 37 7149 3807 4.3 25 6 2 10 23% 14568 107421 22761 75%
c d  2.16 26 375 0 5 1053 37 7712 4306 4.4 26 6 2 10 23% 14519 107421 22723 75%
c u  2.19 26 375 0 5 1053 37 7712 3748 4.4 26 6 2 10 23% 14536 107421 22723 75%
c v  2.21 26 375 0 5 1053 37 7712 3213 4.4 26 6 2 10 23% 14537 107421 22723 75%
c w  2.26 26 375 0 5 1053 37 7712 3209 4.4 26 6 2 10 23% 14537 107421 22723 75%
c =  2.35 26 375 0 5 1053 37 7712 3209 4.4 26 6 2 10 23% 14965 107421 22509 74%
c d  2.35 26 375 0 5 1053 37 7712 3202 4.4 26 6 2 10 23% 14454 107421 22506 74%
c t  2.37 26 375 0 5 1053 37 7712 3202 4.4 26 6 2 10 23% 14444 107421 22506 74%
c
c  seconds   switched    rate       size/glue tier1     binary           remaining
c         MB  reductions  conflicts       size  tier2       irredundant
c           level  restarts    redundant    glue    trail           variables
c
c f  2.40 26 375 0 5 1053 37 7712 3202 4.4 26 6 2 10 23% 14892 106730 22732 75%
c u  2.46 26 375 0 5 1053 37 7712 3127 4.4 26 6 2 10 23% 14893 106730 22732 75%
c v  2.48 26 375 0 5 1053 37 7712 3034 4.4 26 6 2 10 23% 14893 106730 22732 75%
c w  2.51 26 375 0 5 1053 37 7712 3032 4.4 26 6 2 10 23% 14893 106730 22732 75%
c x  2.53 26 375 0 5 1053 37 7712 3032 4.4 26 6 2 10 23% 14895 106628 22732 75%
c =  2.62 26 375 0 5 1053 37 7712 3032 4.4 26 6 2 10 23% 15429 106628 22465 74%
c d  2.64 26 375 0 5 1053 37 7712 3016 4.4 26 6 2 10 23% 14788 106628 22465 74%
c t  2.66 26 375 0 5 1053 37 7712 3016 4.4 26 6 2 10 23% 14759 106628 22465 74%
c f  2.72 26 375 0 5 1053 37 7712 3016 4.4 26 6 2 10 23% 17346 102735 23762 79%
c -  3.09 26 395 0 6 1137 36 9385 3862 4.4 25 6 2 9 22% 17475 102731 23762 79%
c o  3.24 26 390 0 6 1176 36 10095 4368 4.4 25 6 2 9 22% 17520 102731 23762 79%
c -  3.80 26 399 0 7 1372 37 11834 5226 4.6 27 6 2 9 22% 17596 102731 23762 79%
c s  4.00 26 399 0 7 1425 37 12519 5819 4.5 26 6 2 9 22% 17619 99989 23762 79%
c e  4.14 26 399 0 7 1425 37 12519 5819 4.5 26 6 2 9 22% 16563 100749 22859 76%
c 2  4.14 26 399 0 7 1425 37 12519 5819 4.5 26 6 2 9 22% 16558 100749 22859 76%
c s  4.15 26 399 0 7 1425 37 12519 5819 4.5 26 6 2 9 22% 16568 100256 22859 76%
c e  4.17 26 399 0 7 1425 37 12519 5819 4.5 26 6 2 9 22% 16368 100375 22763 75%
c ^  4.17 26 399 0 7 1425 37 12519 5819 4.5 26 6 2 9 22% 16368 100375 22763 75%
c -  4.81 26 392 0 8 1643 38 14479 6268 4.5 27 6 2 8 23% 16463 100373 22763 75%
c d  5.21 26 404 0 8 1781 38 15797 7321 4.5 27 6 2 8 23% 15998 100369 22453 74%
c
c  seconds   switched    rate        size/glue tier1    binary           remaining
c         MB  reductions   conflicts       size  tier2      irredundant
c           level  restarts     redundant    glue   trail           variables
c
c u  5.26 26 404 0 8 1781 38 15797 6377 4.5 27 6 2 8 23% 16027 100369 22453 74%
c v  5.32 26 404 0 8 1781 38 15797 5543 4.5 27 6 2 8 23% 16030 100369 22453 74%
c w  5.45 26 404 0 8 1781 38 15797 5513 4.5 27 6 2 8 23% 16030 100369 22453 74%
c =  5.67 26 404 0 8 1781 38 15797 5513 4.5 27 6 2 8 23% 16958 100369 21989 73%
c d  5.68 26 404 0 8 1781 38 15797 5462 4.5 27 6 2 8 23% 15872 100369 21989 73%
c t  5.71 26 404 0 8 1781 38 15797 5462 4.5 27 6 2 8 23% 15805 100369 21989 73%
c f  5.79 26 404 0 8 1781 38 15797 5462 4.5 27 6 2 8 23% 15841 100240 22027 73%
c u  5.86 26 404 0 8 1781 38 15797 5245 4.5 27 6 2 8 23% 15851 100240 22027 73%
c v  5.90 26 404 0 8 1781 38 15797 5131 4.5 27 6 2 8 23% 15851 100240 22027 73%
c w  6.00 26 404 0 8 1781 38 15797 5113 4.5 27 6 2 8 23% 15851 100240 22027 73%
c =  6.24 26 404 0 8 1781 38 15797 5113 4.5 27 6 2 8 23% 16213 100237 21846 72%
c d  6.25 26 404 0 8 1781 38 15797 5099 4.5 27 6 2 8 23% 15793 100237 21846 72%
c t  6.28 26 404 0 8 1781 38 15797 5099 4.5 27 6 2 8 23% 15788 100237 21846 72%
c f  6.31 26 404 0 8 1781 38 15797 5099 4.5 27 6 2 8 23% 15811 100184 21859 72%
c -  6.72 26 403 0 9 1910 37 17310 5774 4.4 27 6 2 8 23% 15859 100180 21859 72%
c o  7.44 26 386 0 9 2165 36 20155 8175 4.2 25 6 2 8 23% 15972 100180 21859 72%
c -  7.56 26 385 0 10 2207 36 20310 7432 4.3 26 6 2 8 23% 15972 100180 21859 72%
c -  8.73 26 368 0 11 2568 37 23472 8928 4.4 27 6 2 8 24% 16075 100179 21859 72%
c s  9.09 26 367 0 11 2678 36 25031 10314 4.3 27 6 2 8 24% 16116 97313 21859 72%
c e  9.24 26 367 0 11 2678 36 25031 10314 4.3 27 6 2 8 24% 12058 102516 19644 65%
c
c  seconds   switched     rate         size/glue tier1    binary           remaining
c         MB   reductions   conflicts        size  tier2      irredundant
c           level   restarts      redundant    glue   trail           variables
c
c 2  9.24 26 367 0 11 2678 36 25031 10314 4.3 27 6 2 8 24% 12055 102516 19644 65%
c s  9.25 26 367 0 11 2678 36 25031 10314 4.3 27 6 2 8 24% 12080 102189 19644 65%
c e  9.27 26 367 0 11 2678 36 25031 10314 4.3 27 6 2 8 24% 12012 102268 19615 65%
c ^  9.27 26 367 0 11 2678 36 25031 10314 4.3 27 6 2 8 24% 12012 102268 19615 65%
c -  9.90 26 363 0 12 2888 36 26788 9190 4.4 27 6 2 8 24% 12067 102267 19615 65%
c c 10.07 26 363 0 12 2917 36 26932 9324 4.4 27 6 2 8 24% 12108 102059 19579 65%
c d 10.08 26 363 0 12 2917 36 26932 9294 4.4 27 6 2 8 24% 11651 102059 19350 64%
c u 10.15 26 363 0 12 2917 36 26932 8010 4.4 27 6 2 8 24% 11673 102059 19350 64%
c v 10.21 26 363 0 12 2917 36 26932 7124 4.4 27 6 2 8 24% 11673 102059 19350 64%
c w 10.25 26 363 0 12 2917 36 26932 7121 4.4 27 6 2 8 24% 11673 102059 19350 64%
c x 10.36 26 363 0 12 2917 36 26932 7117 4.4 27 6 2 8 24% 11734 100724 19350 64%
c = 10.70 26 363 0 12 2917 36 26932 7117 4.4 27 6 2 8 24% 15126 100724 17654 58%
c d 10.71 26 363 0 12 2917 36 26932 6909 4.4 27 6 2 8 24% 11620 100724 17654 58%
c t 10.73 26 363 0 12 2917 36 26932 6909 4.4 27 6 2 8 24% 11573 100724 17654 58%
c f 10.83 26 363 0 12 2917 36 26932 6909 4.4 27 6 2 8 24% 11658 100470 17706 59%
c u 10.90 26 363 0 12 2917 36 26932 6422 4.4 27 6 2 8 24% 11658 100470 17706 59%
c v 10.93 26 363 0 12 2917 36 26932 6296 4.4 27 6 2 8 24% 11658 100470 17706 59%
c w 10.97 26 363 0 12 2917 36 26932 6293 4.4 27 6 2 8 24% 11658 100470 17706 59%
c = 11.30 26 363 0 12 2917 36 26932 6293 4.4 27 6 2 8 24% 13944 100458 16563 55%
c d 11.31 26 363 0 12 2917 36 26932 6255 4.4 27 6 2 8 24% 11614 100458 16563 55%
c
c  seconds   switched     rate        size/glue tier1    binary           remaining
c         MB   reductions   conflicts       size  tier2      irredundant
c           level   restarts     redundant    glue   trail           variables
c
c t 11.33 26 363 0 12 2917 36 26932 6255 4.4 27 6 2 8 24% 11523 100458 16563 55%
c f 11.38 26 363 0 12 2917 36 26932 6255 4.4 27 6 2 8 24% 11553 100355 16586 55%
c - 11.93 26 359 0 13 3168 35 30252 8376 4.2 26 6 2 7 23% 11607 100353 16586 55%
c - 12.66 26 345 0 14 3441 34 33858 10526 4.1 25 6 2 7 23% 11674 100350 16586 55%
c - 13.61 26 338 0 15 3851 34 37599 12244 4.1 25 6 2 7 23% 11746 100348 16586 55%
c o 14.30 26 329 0 15 4117 34 40156 14495 4.1 25 6 2 7 23% 11795 100344 16586 55%
c c 14.77 26 324 0 15 4282 34 41264 15522 4.0 26 6 2 7 23% 11904 99787 16488 55%
c d 14.78 26 324 0 15 4282 34 41264 15294 4.0 26 6 2 7 23% 11708 99787 16488 55%
c u 14.87 26 324 0 15 4282 34 41264 12957 4.0 26 6 2 7 23% 11717 99787 16488 55%
c v 14.96 26 324 0 15 4282 34 41264 11700 4.0 26 6 2 7 23% 11718 99787 16488 55%
c w 15.03 26 324 0 15 4282 34 41264 11700 4.0 26 6 2 7 23% 11718 99787 16488 55%
c x 15.11 26 324 0 15 4282 34 41264 11696 4.0 26 6 2 7 23% 11718 92172 16488 55%
c = 15.40 26 324 0 15 4282 34 41264 11696 4.0 26 6 2 7 23% 11772 92172 16461 54%
c d 15.41 26 324 0 15 4282 34 41264 11683 4.0 26 6 2 7 23% 11715 92172 16460 54%
c t 15.43 26 324 0 15 4282 34 41264 11683 4.0 26 6 2 7 23% 11699 92172 16460 54%
c f 15.45 26 324 0 15 4282 34 41264 11683 4.0 26 6 2 7 23% 11700 92168 16461 54%
c c 15.53 26 324 0 15 4282 34 41264 11682 4.0 26 6 2 7 23% 11707 92144 16458 54%
c d 15.54 26 324 0 15 4282 34 41264 11682 4.0 26 6 2 7 23% 11701 92144 16458 54%
c u 15.60 26 324 0 15 4282 34 41264 11088 4.0 26 6 2 7 23% 11705 92144 16458 54%
c v 15.65 26 324 0 15 4282 34 41264 10661 4.0 26 6 2 7 23% 11707 92144 16458 54%
c
c  seconds   switched     rate         size/glue tier1    binary          remaining
c         MB   reductions   conflicts        size  tier2      irredundant
c           level   restarts      redundant    glue   trail          variables
c
c w 15.75 26 324 0 15 4282 34 41264 10656 4.0 26 6 2 7 23% 11707 92144 16458 54%
c x 15.80 26 324 0 15 4282 34 41264 10654 4.0 26 6 2 7 23% 11709 87702 16458 54%
c = 16.07 26 324 0 15 4282 34 41264 10654 4.0 26 6 2 7 23% 12153 87702 16236 54%
c d 16.08 26 324 0 15 4282 34 41264 10462 4.0 26 6 2 7 23% 11691 87702 16236 54%
c t 16.10 26 324 0 15 4282 34 41264 10462 4.0 26 6 2 7 23% 11674 87702 16236 54%
c - 16.21 26 323 0 16 4312 34 41471 9447 4.0 26 6 2 6 23% 11677 87700 16236 54%
c - 17.07 26 312 0 17 4677 33 45473 11618 4.0 25 6 2 6 23% 11754 87697 16236 54%
c - 18.23 26 301 0 18 5100 32 49597 13745 3.9 26 7 2 6 23% 11841 87696 16236 54%
c s 18.63 26 295 0 18 5259 31 52148 15968 3.9 25 6 2 6 23% 11892 79724 16236 54%
c e 18.76 26 295 0 18 5259 31 52148 15968 3.9 25 6 2 6 23% 10718 81675 15598 52%
c 2 18.76 26 295 0 18 5259 31 52148 15968 3.9 25 6 2 6 23% 10716 81675 15598 52%
c s 18.77 26 295 0 18 5259 31 52148 15968 3.9 25 6 2 6 23% 10730 81101 15598 52%
c e 18.79 26 295 0 18 5259 31 52148 15968 3.9 25 6 2 6 23% 10628 81254 15550 51%
c ^ 18.79 26 295 0 18 5259 31 52148 15968 3.9 25 6 2 6 23% 10628 81254 15550 51%
c - 19.27 26 289 0 19 5474 31 53839 14432 3.9 26 7 2 6 23% 10676 81250 15550 51%
c - 19.79 26 286 0 20 5706 30 58197 16081 3.8 25 6 2 6 22% 10794 81248 15550 51%
c d 19.81 26 287 0 20 5708 30 58890 16491 3.8 24 6 2 6 22% 10716 81248 15496 51%
c u 19.91 26 287 0 20 5708 30 58890 13535 3.8 24 6 2 6 22% 10753 81248 15496 51%
c v 19.98 26 287 0 20 5708 30 58890 12264 3.8 24 6 2 6 22% 10761 81248 15496 51%
c w 19.99 26 287 0 20 5708 30 58890 12236 3.8 24 6 2 6 22% 10761 81248 15496 51%
c
c  seconds   switched     rate         size/glue tier1    binary          remaining
c         MB   reductions   conflicts        size  tier2      irredundant
c           level   restarts      redundant    glue   trail          variables
c
c x 20.11 26 287 0 20 5708 30 58890 12228 3.8 24 6 2 6 22% 10794 79918 15496 51%
c = 20.43 26 287 0 20 5708 30 58890 12228 3.8 24 6 2 6 22% 11876 79918 14955 49%
c d 20.44 26 287 0 20 5708 30 58890 11936 3.8 24 6 2 6 22% 10726 79918 14953 49%
c t 20.46 26 287 0 20 5708 30 58890 11936 3.8 24 6 2 6 22% 10630 79918 14953 49%
c f 20.52 26 287 0 20 5708 30 58890 11936 3.8 24 6 2 6 22% 10654 79786 14970 50%
c c 20.60 26 287 0 20 5708 30 58890 11894 3.8 24 6 2 6 22% 10693 79636 14950 49%
c d 20.60 26 287 0 20 5708 30 58890 11894 3.8 24 6 2 6 22% 10653 79636 14950 49%
c u 20.68 26 287 0 20 5708 30 58890 11121 3.8 24 6 2 6 22% 10666 79636 14950 49%
c v 20.73 26 287 0 20 5708 30 58890 10834 3.8 24 6 2 6 22% 10667 79636 14950 49%
c w 20.74 26 287 0 20 5708 30 58890 10819 3.8 24 6 2 6 22% 10668 79636 14950 49%
c x 20.88 26 287 0 20 5708 30 58890 10816 3.8 24 6 2 6 22% 10695 75507 14950 49%
c = 21.21 26 287 0 20 5708 30 58890 10816 3.8 24 6 2 6 22% 11665 75507 14465 48%
c d 21.22 26 287 0 20 5708 30 58890 10545 3.8 24 6 2 6 22% 10644 75507 14464 48%
c t 21.24 26 287 0 20 5708 30 58890 10545 3.8 24 6 2 6 22% 10555 75507 14464 48%
c f 21.27 26 287 0 20 5708 30 58890 10545 3.8 24 6 2 6 22% 10565 75400 14480 48%
c - 22.10 26 282 0 21 6058 30 62669 10674 3.8 24 6 1 6 22% 10648 75398 14480 48%
c - 22.86 26 272 0 22 6386 29 67252 12509 3.7 24 7 1 6 22% 10709 75398 14480 48%
c o 23.41 26 267 0 22 6655 28 70187 15016 3.6 24 7 1 6 22% 10777 75397 14480 48%
c - 24.14 26 263 0 23 7000 29 71943 14087 3.6 24 7 1 5 23% 10783 75397 14480 48%
c - 25.19 26 254 0 24 7425 28 76738 15474 3.6 24 7 1 5 22% 10836 75397 14480 48%
c
c  seconds   switched     rate         size/glue tier1    binary          remaining
c         MB   reductions   conflicts        size  tier2      irredundant
c           level   restarts      redundant    glue   trail          variables
c
c c 25.89 26 247 0 24 7672 28 79957 18340 3.6 24 7 1 5 22% 10996 74493 14330 47%
c d 25.90 26 247 0 24 7672 28 79957 17922 3.6 24 7 1 5 22% 10696 74493 14330 47%
c u 25.97 26 247 0 24 7672 28 79957 15959 3.6 24 7 1 5 22% 10709 74493 14330 47%
c v 26.09 26 247 0 24 7672 28 79957 13488 3.6 24 7 1 5 22% 10721 74493 14330 47%
c w 26.22 26 247 0 24 7672 28 79957 13469 3.6 24 7 1 5 22% 10721 74493 14330 47%
c x 26.34 26 247 0 24 7672 28 79957 13464 3.6 24 7 1 5 22% 10732 71368 14330 47%
c d 26.39 26 247 0 24 7672 28 79957 13438 3.6 24 7 1 5 22% 10710 71368 14319 47%
c t 26.41 26 247 0 24 7672 28 79957 13438 3.6 24 7 1 5 22% 10679 71368 14319 47%
c f 26.43 26 247 0 24 7672 28 79957 13438 3.6 24 7 1 5 22% 10682 71354 14321 47%
c c 26.50 26 247 0 24 7672 28 79957 13410 3.6 24 7 1 5 22% 10694 71321 14316 47%
c d 26.51 26 247 0 24 7672 28 79957 13410 3.6 24 7 1 5 22% 10684 71321 14316 47%
c u 26.56 26 247 0 24 7672 28 79957 13000 3.6 24 7 1 5 22% 10685 71321 14316 47%
c v 26.64 26 247 0 24 7672 28 79957 12468 3.6 24 7 1 5 22% 10691 71321 14316 47%
c w 26.81 26 247 0 24 7672 28 79957 12215 3.6 24 7 1 5 22% 10691 71321 14316 47%
c x 26.92 26 247 0 24 7672 28 79957 12214 3.6 24 7 1 5 22% 10696 70996 14316 47%
c t 26.95 26 247 0 24 7672 28 79957 12214 3.6 24 7 1 5 22% 10690 70996 14316 47%
c - 27.34 26 245 0 25 7834 27 81639 11581 3.6 24 7 1 5 23% 10710 70995 14316 47%
c - 28.68 26 238 0 26 8479 28 86639 13646 3.6 24 7 1 5 23% 10764 70995 14316 47%
c - 29.74 26 233 0 27 8952 27 91739 15576 3.5 24 7 1 5 23% 10846 70994 14316 47%
c s 30.56 26 230 0 27 9313 27 95808 19018 3.5 24 7 1 5 23% 10903 70867 14316 47%
c
c  seconds   switched     rate         size/glue tier1    binary         remaining
c         MB   reductions   conflicts        size  tier2     irredundant
c           level   restarts      redundant    glue   trail         variables
c
c e 30.70 26 230 0 27 9313 27 95808 19018 3.5 24 7 1 5 23% 7328 79449 12483 41%
c 2 30.70 26 230 0 27 9313 27 95808 19018 3.5 24 7 1 5 23% 7314 79449 12483 41%
c s 30.73 26 230 0 27 9313 27 95808 19018 3.5 24 7 1 5 23% 7328 78894 12483 41%
c e 30.75 26 230 0 27 9313 27 95808 19018 3.5 24 7 1 5 23% 7232 79098 12445 41%
c ^ 30.75 26 230 0 27 9313 27 95808 19018 3.5 24 7 1 5 23% 7232 79098 12445 41%
c - 31.03 26 230 0 28 9447 27 96936 12657 3.5 24 7 1 5 23% 7235 79098 12445 41%
c - 32.43 26 224 0 29 10089 27 102229 14792 3.5 24 7 1 5 23% 7297 79097 12445 41%
c d 32.57 26 223 0 29 10141 26 104592 16582 3.4 24 7 1 5 23% 7268 79097 12404 41%
c u 32.63 26 223 0 29 10141 26 104592 14894 3.4 24 7 1 5 23% 7299 79097 12404 41%
c v 32.73 26 223 0 29 10141 26 104592 12562 3.4 24 7 1 5 23% 7307 79097 12404 41%
c w 32.81 26 223 0 29 10141 26 104592 12262 3.4 24 7 1 5 23% 7307 79097 12404 41%
c x 32.99 26 223 0 29 10141 26 104592 12244 3.4 24 7 1 5 23% 7328 78164 12404 41%
c = 33.54 26 223 0 29 10141 26 104592 12244 3.4 24 7 1 5 23% 7902 78117 12112 40%
c d 33.55 26 223 0 29 10141 26 104592 11755 3.4 24 7 1 5 23% 7234 78117 12112 40%
c t 33.57 26 223 0 29 10141 26 104592 11755 3.4 24 7 1 5 23% 7154 78117 12112 40%
c f 33.67 26 223 0 29 10141 26 104592 11755 3.4 24 7 1 5 23% 7167 78003 12122 40%
c u 33.78 26 223 0 29 10141 26 104592 11134 3.4 24 7 1 5 23% 7176 78003 12122 40%
c v 33.84 26 223 0 29 10141 26 104592 10442 3.4 24 7 1 5 23% 7184 78003 12122 40%
c w 33.90 26 223 0 29 10141 26 104592 10296 3.4 24 7 1 5 23% 7184 78003 12122 40%
c x 34.15 26 223 0 29 10141 26 104592 10288 3.4 24 7 1 5 23% 7205 75939 12122 40%
c
c  seconds   switched      rate          size/glue tier1    binary         remaining
c         MB   reductions    conflicts         size  tier2     irredundant
c           level   restarts        redundant    glue   trail         variables
c
c = 34.71 26 223 0 29 10141 26 104592 10288 3.4 24 7 1 5 23% 7231 75934 12108 40%
c d 34.72 26 223 0 29 10141 26 104592 10277 3.4 24 7 1 5 23% 7205 75934 12108 40%
c t 34.74 26 223 0 29 10141 26 104592 10277 3.4 24 7 1 5 23% 7188 75934 12108 40%
c - 35.40 26 220 0 30 10415 26 107617 11223 3.4 24 7 1 5 23% 7205 75933 12108 40%
c i 35.44 26 219 0 30 10424 26 107901 11451 3.4 24 7 1 5 23% 7212 75933 12107 40%
c o 35.78 26 217 0 30 10580 26 110188 13492 3.4 23 7 1 5 23% 7230 75932 12107 40%
c - 36.74 26 215 0 31 11036 26 113095 13787 3.4 24 7 1 5 23% 7234 75931 12107 40%
c i 37.19 26 212 0 31 11224 25 116124 16469 3.4 24 7 1 5 23% 7266 75928 12106 40%
c - 37.81 26 210 0 32 11457 25 118662 16032 3.3 24 7 1 5 24% 7263 75928 12106 40%
c - 39.67 26 206 0 33 12083 25 124318 17969 3.4 25 7 1 5 24% 7277 75927 12106 40%
c i 39.72 26 205 0 33 12100 25 124840 18403 3.4 25 7 1 5 24% 7282 75927 12105 40%
c i 39.77 26 205 0 33 12118 25 125411 18903 3.4 25 7 1 5 24% 7291 75927 12104 40%
c i 40.50 26 202 0 33 12372 24 128986 22229 3.3 25 7 1 5 24% 7310 75926 12103 40%
c - 40.76 26 201 0 34 12464 24 130063 19543 3.3 25 7 1 5 24% 7307 75926 12103 40%
c i 40.83 26 201 0 34 12494 24 130221 19679 3.3 25 7 1 5 24% 7310 75926 12102 40%
c u 41.70 26 199 0 34 12760 24 132850 19389 3.3 25 8 1 5 24% 7378 75868 12098 40%
c v 41.84 26 199 0 34 12760 24 132850 16291 3.3 25 8 1 5 24% 7388 75868 12098 40%
c w 42.05 26 199 0 34 12760 24 132850 16263 3.3 25 8 1 5 24% 7388 75868 12098 40%
c x 42.19 26 199 0 34 12760 24 132850 16263 3.3 25 8 1 5 24% 7395 75805 12098 40%
c = 42.86 26 199 0 34 12760 24 132850 16263 3.3 25 8 1 5 24% 7406 75803 12092 40%
c
c  seconds   switched      rate          size/glue tier1    binary         remaining
c         MB   reductions    conflicts         size  tier2     irredundant
c           level   restarts        redundant    glue   trail         variables
c
c d 42.87 26 199 0 34 12760 24 132850 16260 3.3 25 8 1 5 24% 7380 75803 12088 40%
c t 42.89 26 199 0 34 12760 24 132850 16260 3.3 25 8 1 5 24% 7318 75803 12088 40%
c u 42.99 26 199 0 34 12760 24 132850 15541 3.3 25 8 1 5 24% 7343 75803 12087 40%
c v 43.08 26 199 0 34 12760 24 132850 14811 3.3 25 8 1 5 24% 7346 75803 12087 40%
c w 43.47 26 199 0 34 12760 24 132850 14412 3.3 25 8 1 5 24% 7346 75803 12087 40%
c = 44.15 26 199 0 34 12760 24 132850 14412 3.3 25 8 1 5 24% 7356 75791 12082 40%
c d 44.15 26 199 0 34 12760 24 132850 14409 3.3 25 8 1 5 24% 7346 75791 12082 40%
c t 44.17 26 199 0 34 12760 24 132850 14409 3.3 25 8 1 5 24% 7332 75791 12082 40%
c i 44.19 26 199 0 34 12760 24 132850 14409 3.3 25 8 1 5 24% 7332 75791 12082 40%
c i 44.41 26 198 0 34 12865 24 134067 15502 3.3 25 8 1 5 24% 7348 75791 12080 40%
c i 44.86 26 198 0 34 13019 24 135813 17127 3.3 25 8 1 5 24% 7354 75791 12079 40%
c - 44.87 26 198 0 35 13019 24 135893 14536 3.3 25 8 1 5 24% 7336 75791 12079 40%
c - 46.17 26 193 0 36 13480 24 141811 17218 3.3 25 8 1 5 24% 7363 75788 12079 40%
c i 46.60 26 192 0 36 13657 24 143204 18523 3.3 25 8 1 5 25% 7371 75788 12078 40%
c i 46.87 26 190 0 36 13753 23 144727 19971 3.3 25 8 1 5 25% 7380 75788 12077 40%
c i 47.06 26 189 0 36 13817 23 145555 20756 3.3 25 8 1 5 25% 7382 75788 12076 40%
c i 47.06 26 189 0 36 13817 23 145589 20770 3.3 25 8 1 5 25% 7384 75788 12074 40%
c i 47.37 26 188 0 36 13927 23 147494 22502 3.2 25 8 1 5 25% 7403 75788 12073 40%
c - 47.45 26 188 0 37 13948 23 147811 19246 3.2 25 8 1 5 25% 7386 75788 12073 40%
c - 49.03 26 183 0 38 14499 23 153893 20744 3.2 25 8 1 5 25% 7403 75788 12073 40%
c
c  seconds   switched      rate          size/glue tier1    binary         remaining
c         MB   reductions    conflicts         size  tier2     irredundant
c           level   restarts        redundant    glue   trail         variables
c
c i 49.15 26 182 0 38 14535 23 154858 21664 3.2 25 8 1 5 25% 7410 75787 12072 40%
c i 49.33 26 181 0 38 14599 23 155558 22296 3.2 25 8 1 5 25% 7414 75787 12071 40%
c i 49.47 26 181 0 38 14639 22 156307 23000 3.2 25 8 1 5 25% 7418 75786 12070 40%
c i 49.47 26 180 0 38 14641 22 156377 23061 3.2 25 8 1 5 25% 7421 75786 12069 40%
c i 49.60 26 179 0 38 14675 22 157270 23873 3.2 25 8 1 5 25% 7432 75786 12068 40%
c 2 49.71 26 179 0 38 14710 22 157878 24449 3.1 25 8 1 5 25% 7432 75786 12067 40%
c s 49.72 26 179 0 38 14710 22 157878 24449 3.1 25 8 1 5 25% 7433 75593 12067 40%
c e 49.89 26 179 0 38 14710 22 157878 24449 3.1 25 8 1 5 25% 4240 89285 10291 34%
c 2 49.90 26 179 0 38 14710 22 157878 24449 3.1 25 8 1 5 25% 4235 89285 10291 34%
c s 49.93 26 179 0 38 14710 22 157878 24449 3.1 25 8 1 5 25% 4254 88351 10291 34%
c e 49.96 26 179 0 38 14710 22 157878 24449 3.1 25 8 1 5 25% 4213 88552 10258 34%
c ^ 49.96 26 179 0 38 14710 22 157878 24449 3.1 25 8 1 5 25% 4213 88552 10258 34%
c i 50.10 26 178 0 38 14767 22 158578 17942 3.1 24 8 1 5 25% 4217 88552 10257 34%
c i 50.28 26 177 0 38 14831 22 159432 18742 3.1 24 8 1 5 25% 4223 88551 10252 34%
c - 50.50 26 177 0 39 14917 22 160059 16122 3.1 24 8 1 5 25% 4217 88496 10252 34%
c o 50.55 26 176 0 39 14937 22 160254 16307 3.1 24 8 1 5 25% 4217 88496 10252 34%
c i 51.33 26 173 0 39 15284 22 163865 19650 3.1 24 8 1 5 25% 4240 88496 10251 34%
c c 51.53 26 172 0 39 15364 22 164839 20567 3.1 24 8 1 5 25% 4252 88492 10249 34%
c d 51.54 26 172 0 39 15364 22 164839 20521 3.1 24 8 1 5 25% 4249 88492 10249 34%
c u 51.62 26 172 0 39 15364 22 164839 18572 3.1 24 8 1 5 25% 4284 88492 10248 34%
c
c  seconds   switched      rate          size/glue tier1    binary         remaining
c         MB   reductions    conflicts         size  tier2     irredundant
c           level   restarts        redundant    glue   trail         variables
c
c v 51.77 26 172 0 39 15364 22 164839 15380 3.1 24 8 1 5 25% 4289 88492 10248 34%
c w 51.98 26 172 0 39 15364 22 164839 15313 3.1 24 8 1 5 25% 4289 88492 10248 34%
c x 52.10 26 172 0 39 15364 22 164839 15313 3.1 24 8 1 5 25% 4289 88470 10248 34%
c = 52.82 26 172 0 39 15364 22 164839 15313 3.1 24 8 1 5 25% 4295 88457 10245 34%
c d 52.83 26 172 0 39 15364 22 164839 15310 3.1 24 8 1 5 25% 4291 88457 10245 34%
c t 52.84 26 172 0 39 15364 22 164839 15310 3.1 24 8 1 5 25% 4242 88457 10245 34%
c f 52.99 26 172 0 39 15364 22 164839 15310 3.1 24 8 1 5 25% 4331 87404 10294 34%
c u 53.07 26 172 0 39 15364 22 164839 14908 3.1 24 8 1 5 25% 4335 87404 10294 34%
c v 53.14 26 172 0 39 15364 22 164839 14361 3.1 24 8 1 5 25% 4336 87404 10294 34%
c w 53.50 26 172 0 39 15364 22 164839 13814 3.1 24 8 1 5 25% 4336 87404 10294 34%
c = 54.21 26 172 0 39 15364 22 164839 13814 3.1 24 8 1 5 25% 4344 87372 10289 34%
c d 54.22 26 172 0 39 15364 22 164839 13812 3.1 24 8 1 5 25% 4336 87372 10289 34%
c t 54.24 26 172 0 39 15364 22 164839 13812 3.1 24 8 1 5 25% 4331 87372 10289 34%
c i 54.26 26 172 0 39 15364 22 164839 13812 3.1 24 8 1 5 25% 4331 87372 10289 34%
c - 54.50 26 172 0 40 15465 21 166304 12495 3.1 24 8 1 5 25% 4329 87370 10289 34%
c i 54.79 26 170 0 40 15560 21 168247 14277 3.0 24 8 1 5 25% 4343 87370 10288 34%
c i 54.81 26 170 0 40 15572 21 168560 14565 3.0 24 8 1 5 25% 4345 87370 10285 34%
c i 54.85 26 170 0 40 15594 21 168886 14850 3.0 24 8 1 5 25% 4350 87370 10284 34%
c i 54.87 26 169 0 40 15608 21 169083 15026 3.0 24 8 1 5 25% 4356 87370 10283 34%
c i 54.95 26 169 0 40 15653 21 169567 15471 3.0 24 8 1 5 25% 4365 87370 10282 34%
c
c  seconds   switched      rate          size/glue tier1    binary         remaining
c         MB   reductions    conflicts         size  tier2     irredundant
c           level   restarts        redundant    glue   trail         variables
c
c i 54.98 26 168 0 40 15684 21 169963 15814 3.0 24 8 1 5 25% 4373 87370 10279 34%
c i 55.02 26 168 0 40 15720 21 170443 16264 3.0 24 8 1 5 25% 4374 87370 10278 34%
c i 55.09 26 166 0 40 15758 21 171694 17378 3.0 23 8 1 5 24% 4382 87370 10277 34%
c i 55.10 26 165 0 40 15768 21 171995 17638 3.0 23 8 1 5 24% 4391 87370 10276 34%
c - 55.12 26 165 0 41 15772 20 172630 14694 3.0 23 8 1 5 24% 4318 87369 10276 34%
c i 55.14 26 164 0 41 15789 20 173097 15070 3.0 23 8 1 5 24% 4330 87369 10273 34%
c i 55.15 26 163 0 41 15789 20 173406 15325 3.0 23 8 1 5 24% 4335 87369 10272 34%
c i 55.15 26 163 0 41 15789 20 173418 15330 3.0 23 8 1 5 24% 4339 87369 10266 34%
c i 55.15 26 163 0 41 15789 20 173427 15333 3.0 23 8 1 5 24% 4341 87369 10261 34%
c i 55.15 26 163 0 41 15789 20 173432 15333 3.0 23 8 1 5 24% 4342 87369 10257 34%
c i 55.15 26 163 0 41 15789 20 173455 15346 3.0 23 8 1 5 24% 4346 87369 10249 34%
c i 55.15 26 163 0 41 15789 20 173456 15346 3.0 23 8 1 5 24% 4346 87369 10248 34%
c } 55.15 26 163 0 41 15789 20 173459 15346 3.0 23 8 1 5 24% 4347 87369 10219 34%
c 0 55.15 26 163 0 41 15789 20 173459 15346 3.0 23 8 1 5 24% 4347 87369 10219 34%
c
c ---- [ result ] ------------------------------------------------------------
c
s UNSATISFIABLE
c
c ---- [ profiling ] ---------------------------------------------------------
c
c          38.53   69.87 %  search
c          38.53   69.87 %  focused
c          16.23   29.43 %  simplify
c          15.32   27.78 %  probe
c           6.59   11.96 %  sweep
c           6.00   10.88 %  vivify
c           1.10    2.00 %  eliminate
c           1.03    1.86 %  factor
c           0.71    1.29 %  congruence
c           0.71    1.28 %  substitute
c           0.34    0.61 %  preprocess
c           0.30    0.55 %  reduce
c           0.21    0.37 %  subsume
c           0.19    0.34 %  transitive
c           0.14    0.26 %  fastel
c           0.09    0.17 %  backbone
c           0.03    0.05 %  lucky
c           0.02    0.04 %  parse
c =============================================
c          55.15  100.00 %  total
c
c ---- [ statistics ] --------------------------------------------------------
c
c chronological:                         7373                4 %  conflicts
c conflicts:                           173459             3145.39 per second
c congruent:                             2773                9 %  variables
c decisions:                          3859989               22.25 per conflict
c eliminated:                           16860               56 %  variables
c factored:                              6179               20 %  variables
c fast_eliminated:                       9251               55 %  eliminated
c fast_strengthened:                      172                6 %  per strengthened
c fast_subsumed:                           66                0 %  per subsumed
c iterations:                              38                0 %  variables
c propagations:                     151394638          2745292    per second
c reductions:                              41             4231    interval
c reordered:                                6            28910    interval
c restarts:                             15789               11    interval
c strengthened:                          3068                0 %  checks
c substituted:                           9201               30 %  variables
c subsumed:                             16649                0 %  checks
c switched:                                 0                0    interval
c vivified:                             83355               13 %  checks
c
c ---- [ glue usage ] --------------------------------------------------------
c
c focused glue 1 used 267328 clauses 59.62% accumulated 59.62% tier1
c focused glue 2 used  85739 clauses 19.12% accumulated 78.75%
c focused glue 3 used  27852 clauses  6.21% accumulated 84.96%
c focused glue 4 used  17223 clauses  3.84% accumulated 88.80%
c focused glue 5 used  11068 clauses  2.47% accumulated 91.27% tier2
c
c ---- [ resources ] ---------------------------------------------------------
c
c maximum-resident-set-size:         27893760 bytes         27 MB
c process-time:                            55s              55.15 seconds
c
c ---- [ shutting down ] -----------------------------------------------------
c
c exit 20
